image0                                  
   1.00000000000000     
     4.2400330401904300   -0.0303461184646511    0.0000000000000000
    -2.1462666203864140    3.7176909461997085    0.0000000000000000
     0.0000000000000000    0.0000000000000000   24.9396991730000011
   Al   Sb
     3     3
Direct
  0.3517096138493940  0.6761576727552949  0.1012043071704696
  0.4126784155862993  0.7056211464356110  0.3239398931306354
  0.5749419875674917  0.2877714601548433  0.1714048982338880
  0.2368348382918768  0.6187322006064306  0.2149225940371267
  0.6847403965980376  0.3426745859619444  0.0589148163987261
  0.7392376546438868  0.3688986558620400  0.3588308476697222
 
  0.00000000E+00  0.00000000E+00  0.00000000E+00
  0.00000000E+00  0.00000000E+00  0.00000000E+00
  0.00000000E+00  0.00000000E+00  0.00000000E+00
  0.00000000E+00  0.00000000E+00  0.00000000E+00
  0.00000000E+00  0.00000000E+00  0.00000000E+00
  0.00000000E+00  0.00000000E+00  0.00000000E+00
